20 4
61 86 75 94 53 98 67 84 55 10 76 31 27 55 30 84 72 74 66 28
54 60 66 83 39 99 43 76 52 32 90 32 27 60 49 111 66 92 83 35
61 61 69 76 48 109 62 64 44 36 89 37 25 66 49 110 95 82 57 51
50 78 88 70 38 102 69 75 38 12 76 39 41 43 25 101 95 80 67 38
